979.13,57.83,69.31
1043.23,54.28,65.05
1003.54,56.43,67.63
1074.81,52.68,63.14
985.94,57.43,68.83
1046.6,54.1,64.84
1060.42,53.4,64.0
1067.85,53.03,63.55
1007.98,56.18,67.33
1077.07,52.57,63.01
968.85,58.45,70.05
973.47,58.17,69.71
818.2,69.21,82.94
1038.03,54.55,65.38
958.19,59.1,70.83
960.32,58.97,70.67
898.99,62.99,75.49
995.02,56.91,68.2
1111.48,50.95,61.06
1008.68,56.14,67.28
